9658
1 1 1 1 0 1 1 1 1 1
3 1 0 6 0 5 6 2 6 6 5 2 6 6 1 2 0 2 8 5 5 7 6 6 1 2 8 5 2 5 2 1 7 2 9 0 9 5 0 5 2 1 7 2 9 2 7 5 7 1 6 7 6 5 6 1 8 5 7 5 5 2 5 9 1 2 8 2 8 6 6 0 6 0 9 1 2 5 7 5 0 7 6 0 9 2 7 5 8 5 5 2 6 6 3 9 0 2 8 1